NAME : XML100_3325_17
DIMENSION : 101
NB_CLUSTERS : 6
CLUSTERING_ALG : KMedoids
CLUSTERING_PARAMS : k(5)
CLUSTERS
1 0
2 2 4 9 10 12 13 15 16 19 25 33 43 53 54 56 60 67 70 84 87 98
3 1 3 5 23 24 27 37 40 47 50 55 57 59 61 62 64 81 85 86 91 95 97
4 7 11 14 20 22 28 29 32 35 38 42 44 45 46 48 58 68 71 73 75 76 83 88 93 94 99 100
5 17 21 26 31 34 65 69 72 82 92 96
6 6 8 18 30 36 39 41 49 51 52 63 66 74 77 78 79 80 89 90
EOF